solutions/best/exact/exact_046.sol
7
4
1
2
8
4
5
6
14
13
13
8
11
12
25
18
15
16
20
20
14
18
21
19
23
0
37
29
27
26
33
29
33
31
37
36
34
25
40
40
36
22
